* ENCODING=ISO-8859-1
NAME          CPLEX
ROWS
 N  obj1    
 G  c1      
 G  c2      
 G  c3      
 G  c4      
 G  c5      
 G  c6      
 G  c7      
 G  c8      
 G  c9      
 G  c10     
 G  c11     
 G  c12     
 G  c13     
 G  c14     
 G  c15     
 G  c16     
 G  c17     
 G  c18     
 G  c19     
 G  c20     
 G  c21     
 G  c22     
 G  c23     
 G  c24     
 G  c25     
 G  c26     
 G  c27     
 G  c28     
 G  c29     
 G  c30     
COLUMNS
    MARK0000  'MARKER'                 'INTORG'
    x1        obj1                            1
    x1        c4                            626
    x2        obj1                            1
    x2        c3                            664
    x2        c12                           214
    x2        c18                           278
    x2        c20                           495
    x2        c22                           981
    x2        c24                           770
    x3        obj1                            1
    x3        c9                            517
    x4        obj1                            1
    x4        c15                           580
    x4        c21                           271
    x4        c23                           435
    x4        c26                           981
    x5        obj1                            1
    x5        c25                           174
    x6        obj1                            1
    x6        c20                           134
    x6        c29                           914
    x7        obj1                            1
    x7        c1                            724
    x7        c3                            789
    x7        c8                            643
    x8        obj1                            1
    x8        c2                            285
    x8        c3                            860
    x8        c12                           613
    x8        c24                           988
    x9        obj1                            1
    x10       obj1                            1
    x10       c9                            313
    x10       c24                           964
    x10       c26                           959
    x10       c28                           256
    x11       obj1                            1
    x11       c1                            999
    x11       c12                           117
    x11       c27                           315
    x12       obj1                            1
    x12       c5                            235
    x12       c8                            406
    x12       c19                           984
    x12       c30                           166
    x13       obj1                            1
    x13       c19                           666
    x13       c28                           807
    x14       obj1                            1
    x14       c7                            952
    x14       c9                            159
    x14       c11                           861
    x14       c21                           323
    x14       c28                           761
    x15       obj1                            1
    x15       c9                            567
    x15       c16                           375
    x16       obj1                            1
    x16       c1                            294
    x16       c3                            605
    x16       c12                           431
    x16       c21                           783
    x16       c26                           630
    x17       obj1                            1
    x17       c17                           170
    x17       c21                           119
    x18       obj1                            1
    x18       c6                            421
    x18       c18                           185
    x18       c20                           275
    x18       c25                           906
    x19       obj1                            1
    x19       c2                            705
    x19       c6                            294
    x19       c9                            250
    x20       obj1                            1
    x20       c26                           475
    x21       obj1                            1
    x22       obj1                            1
    x22       c6                            235
    x22       c7                            557
    x22       c12                           193
    x22       c13                           471
    x23       obj1                            1
    x23       c10                           571
    x23       c11                           333
    x23       c14                           626
    x23       c30                           702
    x24       obj1                            1
    x24       c18                           422
    x24       c19                           465
    x24       c21                           141
    x24       c26                           977
    x25       obj1                            1
    x25       c3                            502
    x25       c7                            634
    x25       c12                           613
    x25       c13                           562
    x25       c20                           694
    x26       obj1                            1
    x26       c2                            405
    x27       obj1                            1
    x27       c14                           650
    x27       c20                           123
    x28       obj1                            1
    x28       c1                            748
    x28       c3                            548
    x29       obj1                            1
    x29       c4                            921
    x29       c12                           235
    x29       c19                           350
    x29       c29                           948
    x30       obj1                            1
    x30       c5                            339
    x30       c24                           150
    x30       c28                           363
    x31       obj1                            1
    x31       c9                            599
    x31       c28                           946
    x31       c29                           474
    x32       obj1                            1
    x32       c2                            935
    x32       c8                            495
    x33       obj1                            1
    x33       c15                           488
    x33       c21                           179
    x33       c24                           994
    x33       c26                           439
    x34       obj1                            1
    x34       c11                           576
    x34       c23                           891
    x35       obj1                            1
    x35       c5                            225
    x35       c10                           182
    x35       c16                           180
    x35       c22                           705
    x36       obj1                            1
    x36       c14                           507
    x36       c28                           215
    x37       obj1                            1
    x37       c12                           848
    x37       c20                           911
    x37       c23                           925
    x38       obj1                            1
    x38       c9                            990
    x38       c15                           277
    x38       c16                           806
    x39       obj1                            1
    x39       c17                           913
    x39       c29                           842
    x40       obj1                            1
    x40       c2                            671
    x41       obj1                            1
    x41       c27                           272
    x42       obj1                            1
    x42       c8                            985
    x42       c9                            243
    x42       c10                           355
    x42       c18                           105
    x42       c20                           930
    x42       c21                           578
    x43       obj1                            1
    x43       c2                            770
    x43       c6                            751
    x43       c24                           427
    x43       c26                           595
    x44       obj1                            1
    x44       c11                           655
    x44       c27                           599
    x45       obj1                            1
    x45       c11                           808
    x45       c18                           871
    x45       c19                           212
    x46       obj1                            1
    x46       c19                           433
    x46       c25                           272
    x47       obj1                            1
    x47       c4                            159
    x47       c11                           744
    x47       c27                           282
    x47       c28                           206
    x48       obj1                            1
    x48       c23                           611
    x49       obj1                            1
    x49       c3                            652
    x49       c16                           223
    x49       c19                           447
    x49       c22                           534
    x50       obj1                            1
    x50       c19                           114
    x50       c22                           740
    x50       c28                           959
    x51       obj1                            1
    x51       c3                            607
    x51       c16                           589
    x52       obj1                            1
    x52       c11                           716
    x52       c21                           851
    x53       obj1                            1
    x53       c1                            994
    x53       c11                           666
    x53       c12                           183
    x53       c13                           156
    x53       c17                           652
    x53       c22                           834
    x53       c29                           240
    x54       obj1                            1
    x54       c22                           275
    x55       obj1                            1
    x55       c25                           226
    x55       c30                           403
    x56       obj1                            1
    x56       c2                            580
    x56       c20                           383
    x57       obj1                            1
    x57       c4                            274
    x57       c11                           883
    x57       c14                           970
    x57       c15                           164
    x57       c26                           559
    x57       c30                           339
    x58       obj1                            1
    x58       c16                           917
    x58       c21                           105
    x58       c27                           597
    x58       c28                           276
    x58       c29                           799
    x59       obj1                            1
    x59       c19                           364
    x59       c20                           298
    x60       obj1                            1
    x60       c4                            720
    x60       c23                           885
    x60       c24                           447
    x60       c27                           813
    MARK0001  'MARKER'                 'INTEND'
RHS
    rhs       c1                           1880
    rhs       c2                           2176
    rhs       c3                           2614
    rhs       c4                           1350
    rhs       c5                            400
    rhs       c6                            851
    rhs       c7                           1072
    rhs       c8                           1265
    rhs       c9                           1819
    rhs       c10                           554
    rhs       c11                          3121
    rhs       c12                          1724
    rhs       c13                           595
    rhs       c14                          1377
    rhs       c15                           755
    rhs       c16                          1545
    rhs       c17                           868
    rhs       c18                           931
    rhs       c19                          2018
    rhs       c20                          2122
    rhs       c21                          1675
    rhs       c22                          2035
    rhs       c23                          1874
    rhs       c24                          2370
    rhs       c25                           789
    rhs       c26                          2808
    rhs       c27                          1439
    rhs       c28                          2395
    rhs       c29                          2109
    rhs       c30                           805
BOUNDS
 LI bnd       x1        0
 LI bnd       x2        0
 LI bnd       x3        0
 LI bnd       x4        0
 LI bnd       x5        0
 LI bnd       x6        0
 LI bnd       x7        0
 LI bnd       x8        0
 LI bnd       x9        0
 LI bnd       x10       0
 LI bnd       x11       0
 LI bnd       x12       0
 LI bnd       x13       0
 LI bnd       x14       0
 LI bnd       x15       0
 LI bnd       x16       0
 LI bnd       x17       0
 LI bnd       x18       0
 LI bnd       x19       0
 LI bnd       x20       0
 LI bnd       x21       0
 LI bnd       x22       0
 LI bnd       x23       0
 LI bnd       x24       0
 LI bnd       x25       0
 LI bnd       x26       0
 LI bnd       x27       0
 LI bnd       x28       0
 LI bnd       x29       0
 LI bnd       x30       0
 LI bnd       x31       0
 LI bnd       x32       0
 LI bnd       x33       0
 LI bnd       x34       0
 LI bnd       x35       0
 LI bnd       x36       0
 LI bnd       x37       0
 LI bnd       x38       0
 LI bnd       x39       0
 LI bnd       x40       0
 LI bnd       x41       0
 LI bnd       x42       0
 LI bnd       x43       0
 LI bnd       x44       0
 LI bnd       x45       0
 LI bnd       x46       0
 LI bnd       x47       0
 LI bnd       x48       0
 LI bnd       x49       0
 LI bnd       x50       0
 LI bnd       x51       0
 LI bnd       x52       0
 LI bnd       x53       0
 LI bnd       x54       0
 LI bnd       x55       0
 LI bnd       x56       0
 LI bnd       x57       0
 LI bnd       x58       0
 LI bnd       x59       0
 LI bnd       x60       0
ENDATA
